p edge 50 121
e 1 3
e 1 37
e 1 50
e 2 26
e 2 35
e 2 50
e 3 6
e 3 7
e 3 30
e 3 36
e 4 5
e 4 6
e 4 18
e 4 47
e 4 48
e 5 9
e 5 12
e 5 14
e 5 19
e 5 23
e 5 28
e 5 32
e 5 40
e 5 48
e 6 14
e 6 25
e 6 43
e 7 15
e 7 31
e 7 35
e 7 50
e 8 17
e 8 19
e 8 27
e 8 43
e 8 46
e 9 31
e 9 34
e 9 38
e 11 25
e 11 26
e 11 32
e 11 38
e 11 41
e 12 19
e 12 24
e 12 29
e 12 31
e 12 38
e 12 48
e 13 19
e 13 31
e 13 44
e 13 49
e 14 16
e 14 22
e 14 25
e 14 46
e 15 29
e 15 49
e 16 31
e 16 46
e 17 18
e 17 27
e 17 28
e 17 36
e 17 43
e 18 48
e 19 20
e 19 27
e 19 34
e 19 36
e 19 38
e 19 39
e 19 41
e 20 24
e 20 29
e 20 34
e 20 46
e 21 41
e 21 43
e 22 24
e 22 50
e 23 29
e 23 39
e 23 47
e 24 29
e 24 48
e 25 49
e 26 44
e 27 43
e 27 46
e 28 30
e 28 32
e 28 34
e 28 45
e 28 47
e 29 37
e 29 41
e 29 50
e 30 41
e 30 42
e 30 46
e 31 40
e 31 46
e 31 50
e 32 34
e 32 42
e 33 40
e 34 44
e 34 45
e 34 46
e 34 49
e 35 37
e 35 47
e 36 49
e 38 45
e 39 43
e 41 46
e 41 47
e 42 45
